(declare-const |phi___VERIFIER_assert__cond___4:274:279:288:638:676| Int)
(declare-const __VERIFIER_assert__cond___7 Int)
(declare-const |main____CPAchecker_TMP_3':295:322:331:545:671| Int)
(declare-const __VERIFIER_assert__cond___16 Int)
(declare-const |havoc:31:62:285:635:673| Int)
(declare-const |phi___VERIFIER_assert__cond___4:281:292:642:680| Int)
(declare-const |main__t':140:317:326:540:666| Int)
(declare-const |phi___VERIFIER_assert__cond___16:343:458:654| Int)
(declare-const havoc Int)
(declare-const |havoc:9:59:138:334:342:466:662| Int)
(declare-const |main____CPAchecker_TMP_4':296:321:330:544:670| Int)
(declare-const |main____CPAchecker_TMP_6':301:318:327:541:667| Int)
(declare-const |havoc:3:58:645| Int)
(declare-const |phi___tmp_383_0:351:450:646| Int)
(declare-const __VERIFIER_assert__cond___8 Int)
(declare-const |main__t':140:160:167:336:460:656| Int)
(declare-const |phi___VERIFIER_assert__cond___3:275:278:287:637:675| Int)
(declare-const |K:158:159:166:335:459:655| Int)
(declare-const |phi_main__t:276:277:286:636:674| Int)
(declare-const |main____CPAchecker_TMP_0___0':142:165:172:341:465:661| Int)
(declare-const |phi_main__t:284:289:639:677| Int)
(declare-const |__VERIFIER_assert__cond___15':143:161:168:337:461:657| Int)
(declare-const main____CPAchecker_TMP_6 Int)
(declare-const |__VERIFIER_assert__cond___8':300:316:325:539:665| Int)
(declare-const main____CPAchecker_TMP_4 Int)
(declare-const |havoc:24:60:273:634:672| Int)
(declare-const |havoc:25:61:294:644:682| Int)
(declare-const __VERIFIER_assert__cond___3 Int)
(declare-const |phi_main____CPAchecker_TMP_4:283:290:640:678| Int)
(declare-const |phi_main____CPAchecker_TMP_0:348:453:649| Int)
(declare-const |__tmp_383_0':139:163:170:339:463:659| Int)
(declare-const |__VERIFIER_assert__cond___16':144:164:171:340:464:660| Int)
(declare-const |phi_main____CPAchecker_TMP_6:280:293:643:681| Int)
(declare-const |main____CPAchecker_TMP_0':141:162:169:338:462:658| Int)
(declare-const main____CPAchecker_TMP_3 Int)
(declare-const |phi___VERIFIER_assert__cond___11:347:454:650| Int)
(declare-const __VERIFIER_assert__cond___11 Int)
(declare-const |K:313:314:323:537:663| Int)
(declare-const |__VERIFIER_assert__cond___7':299:315:324:538:664| Int)
(declare-const |__VERIFIER_assert__cond___4':298:319:328:542:668| Int)
(declare-const __VERIFIER_assert__cond___12 Int)
(declare-const |phi___VERIFIER_assert__cond___3:282:291:641:679| Int)
(declare-const __tmp_383_0 Int)
(declare-const |phi_main____CPAchecker_TMP_0___0:345:456:652| Int)
(declare-const __VERIFIER_assert__cond___4 Int)
(declare-const |phi___tmp_247_0:350:451:647| Int)
(declare-const main____CPAchecker_TMP_0___0 Int)
(declare-const __VERIFIER_assert__cond___15 Int)
(declare-const |__VERIFIER_assert__cond___3':297:320:329:543:669| Int)
(declare-const |phi___VERIFIER_assert__cond___12:346:455:651| Int)
(declare-const |phi_main__t:349:452:648| Int)
(declare-const |phi___VERIFIER_assert__cond___15:344:457:653| Int)
(assert (and (<= (+ (- havoc) 1) 0) (not (= (+ (- havoc) 1) 0))
               (or (and (not (= |havoc:3:58:645| 0))
                          (= (+ (- |phi___tmp_383_0:351:450:646|) __tmp_383_0) 0)
                          (= (+ (- |phi___tmp_247_0:350:451:647|)
                                  |havoc:3:58:645|) 0)
                          (= (- |phi_main__t:349:452:648|) 0)
                          (= (+ (- |phi_main____CPAchecker_TMP_0:348:453:649|)
                                  |havoc:3:58:645|) 0)
                          (= (+ (- |phi___VERIFIER_assert__cond___11:347:454:650|)
                                  __VERIFIER_assert__cond___11) 0)
                          (= (+ (- |phi___VERIFIER_assert__cond___12:346:455:651|)
                                  __VERIFIER_assert__cond___12) 0)
                          (= (+ (- |phi_main____CPAchecker_TMP_0___0:345:456:652|)
                                  main____CPAchecker_TMP_0___0) 0)
                          (= (+ (- |phi___VERIFIER_assert__cond___15:344:457:653|)
                                  __VERIFIER_assert__cond___15) 0)
                          (= (+ (- |phi___VERIFIER_assert__cond___16:343:458:654|)
                                  __VERIFIER_assert__cond___16) 0))
                     (and (= |havoc:3:58:645| 0)
                            (not (= (ite (<= (+ (- havoc) 1) 0) 1 0) 0))
                            (or (not (<= (- |K:158:159:166:335:459:655|) 0))
                                  (= (+ |main__t':140:160:167:336:460:656|
                                          (- |K:158:159:166:335:459:655|)) 0))
                            (or (not (and (<= (- |K:158:159:166:335:459:655|) 0)
                                            (<= |K:158:159:166:335:459:655| 0)))
                                  (= (+ |__VERIFIER_assert__cond___15':143:161:168:337:461:657|
                                          (- __VERIFIER_assert__cond___15)) 0))
                            (or (not (<= (+ (- |K:158:159:166:335:459:655|) 1) 0))
                                  (= (+ |__VERIFIER_assert__cond___15':143:161:168:337:461:657|
                                          -1) 0))
                            (or (not (and (<= (- |K:158:159:166:335:459:655|) 0)
                                            (<= |K:158:159:166:335:459:655| 0)))
                                  (= (+ |main____CPAchecker_TMP_0':141:162:169:338:462:658|
                                          (- |havoc:3:58:645|)) 0))
                            (or (not (<= (+ (- |K:158:159:166:335:459:655|) 1) 0))
                                  (= |main____CPAchecker_TMP_0':141:162:169:338:462:658| 0))
                            (or (not (and (<= (- |K:158:159:166:335:459:655|) 0)
                                            (<= |K:158:159:166:335:459:655| 0)))
                                  (= (+ |__tmp_383_0':139:163:170:339:463:659|
                                          (- |havoc:3:58:645|)) 0))
                            (or (not (<= (+ (- |K:158:159:166:335:459:655|) 1) 0))
                                  (= |__tmp_383_0':139:163:170:339:463:659| 0))
                            (or (not (and (<= (- |K:158:159:166:335:459:655|) 0)
                                            (<= |K:158:159:166:335:459:655| 0)))
                                  (= (+ |__VERIFIER_assert__cond___16':144:164:171:340:464:660|
                                          (- __VERIFIER_assert__cond___16)) 0))
                            (or (not (<= (+ (- |K:158:159:166:335:459:655|) 1) 0))
                                  (= (+ |__VERIFIER_assert__cond___16':144:164:171:340:464:660|
                                          -1) 0))
                            (or (not (and (<= (- |K:158:159:166:335:459:655|) 0)
                                            (<= |K:158:159:166:335:459:655| 0)))
                                  (= (+ |main____CPAchecker_TMP_0___0':142:165:172:341:465:661|
                                          (- main____CPAchecker_TMP_0___0)) 0))
                            (or (not (<= (+ (- |K:158:159:166:335:459:655|) 1) 0))
                                  (= |main____CPAchecker_TMP_0___0':142:165:172:341:465:661| 0))
                            (or (and (= |K:158:159:166:335:459:655| 0)
                                       (= (+ (- |__VERIFIER_assert__cond___16':144:164:171:340:464:660|)
                                               __VERIFIER_assert__cond___16) 0)
                                       (= (+ (- |__VERIFIER_assert__cond___15':143:161:168:337:461:657|)
                                               __VERIFIER_assert__cond___15) 0)
                                       (= (+ (- |main____CPAchecker_TMP_0___0':142:165:172:341:465:661|)
                                               main____CPAchecker_TMP_0___0) 0)
                                       (= (+ (- |main____CPAchecker_TMP_0':141:162:169:338:462:658|)
                                               |havoc:3:58:645|) 0)
                                       (= (- |main__t':140:160:167:336:460:656|) 0)
                                       (= (+ (- |__tmp_383_0':139:163:170:339:463:659|)
                                               |havoc:3:58:645|) 0))
                                  (and (<= (+ (- |K:158:159:166:335:459:655|)
                                                1) 0) (= |havoc:3:58:645| 0)
                                         (= |havoc:3:58:645| 0)
                                         (<= (+ (- havoc) 3) 0)
                                         (= (+ |__VERIFIER_assert__cond___16':144:164:171:340:464:660|
                                                 -1) 0)
                                         (= (+ |__VERIFIER_assert__cond___15':143:161:168:337:461:657|
                                                 -1) 0)
                                         (= |main____CPAchecker_TMP_0':141:162:169:338:462:658| 0)
                                         (= |main____CPAchecker_TMP_0___0':142:165:172:341:465:661| 0)
                                         (= |__tmp_383_0':139:163:170:339:463:659| 0)
                                         (<= (+ |main__t':140:160:167:336:460:656|
                                                  (- havoc) 2) 0)
                                         (<= (+ (- |main__t':140:160:167:336:460:656|)
                                                  1) 0)))
                            (<= (- |K:158:159:166:335:459:655|) 0)
                            (= |__tmp_383_0':139:163:170:339:463:659| 0)
                            (= |main____CPAchecker_TMP_0':141:162:169:338:462:658| 0)
                            (<= (- |main__t':140:160:167:336:460:656|) 0)
                            (< (+ (- havoc) 1) 0)
                            (= |__tmp_383_0':139:163:170:339:463:659| 0)
                            (= |main____CPAchecker_TMP_0':141:162:169:338:462:658| 0)
                            (not (= (+ |main__t':140:160:167:336:460:656|
                                         (- havoc) 2) 0))
                            (not (= |havoc:9:59:138:334:342:466:662| 0))
                            (= (+ |__tmp_383_0':139:163:170:339:463:659|
                                    (- |phi___tmp_383_0:351:450:646|)) 0)
                            (= (+ |havoc:9:59:138:334:342:466:662|
                                    (- |phi___tmp_247_0:350:451:647|)) 0)
                            (= (+ |main__t':140:160:167:336:460:656|
                                    (- |phi_main__t:349:452:648|) 1) 0)
                            (= (+ |__tmp_383_0':139:163:170:339:463:659|
                                    (- |phi_main____CPAchecker_TMP_0:348:453:649|)) 0)
                            (= (+ (- |phi___VERIFIER_assert__cond___11:347:454:650|)
                                    1) 0)
                            (= (+ (ite (<= (+ (- havoc) 1) 0) 1 0)
                                    (- |phi___VERIFIER_assert__cond___12:346:455:651|)) 0)
                            (= (+ |havoc:9:59:138:334:342:466:662|
                                    (- |phi_main____CPAchecker_TMP_0___0:345:456:652|)) 0)
                            (= (+ |__VERIFIER_assert__cond___15':143:161:168:337:461:657|
                                    (- |phi___VERIFIER_assert__cond___15:344:457:653|)) 0)
                            (= (+ |__VERIFIER_assert__cond___16':144:164:171:340:464:660|
                                    (- |phi___VERIFIER_assert__cond___16:343:458:654|)) 0)))
               (not (= (ite (<= (- |phi_main__t:349:452:648|) 0) 1 0) 0))
               (not (= (ite (<= (+ |phi_main__t:349:452:648| (- havoc) 1) 0)
                            1 0) 0))
               (or (not (and (<= (- |K:313:314:323:537:663|) 0)
                               (<= |K:313:314:323:537:663| 0)))
                     (= (+ (- __VERIFIER_assert__cond___7)
                             |__VERIFIER_assert__cond___7':299:315:324:538:664|) 0))
               (or (not (<= (+ (- |K:313:314:323:537:663|) 1) 0))
                     (= (+ |__VERIFIER_assert__cond___7':299:315:324:538:664|
                             -1) 0))
               (or (not (and (<= (- |K:313:314:323:537:663|) 0)
                               (<= |K:313:314:323:537:663| 0)))
                     (= (+ (- __VERIFIER_assert__cond___8)
                             |__VERIFIER_assert__cond___8':300:316:325:539:665|) 0))
               (or (not (<= (+ (- |K:313:314:323:537:663|) 1) 0))
                     (= (+ |__VERIFIER_assert__cond___8':300:316:325:539:665|
                             -1) 0))
               (or (not (<= (- |K:313:314:323:537:663|) 0))
                     (<= (+ |main__t':140:317:326:540:666|
                              (* -2 |K:313:314:323:537:663|)
                              (- |phi_main__t:349:452:648|) -1) 0))
               (or (not (<= (- |K:313:314:323:537:663|) 0))
                     (<= (+ |main__t':140:317:326:540:666|
                              (* 2 |K:313:314:323:537:663|)
                              (- |phi_main__t:349:452:648|)
                              (- (* |K:313:314:323:537:663| havoc)) -1) 0))
               (or (not (<= (- |K:313:314:323:537:663|) 0))
                     (<= (+ (- |main__t':140:317:326:540:666|)
                              |K:313:314:323:537:663|
                              |phi_main__t:349:452:648| 1) 0))
               (or (and (= |K:313:314:323:537:663| 0)
                          (= (+ (- |main____CPAchecker_TMP_6':301:318:327:541:667|)
                                  main____CPAchecker_TMP_6) 0)
                          (= (+ __VERIFIER_assert__cond___8
                                  (- |__VERIFIER_assert__cond___8':300:316:325:539:665|)) 0)
                          (= (+ __VERIFIER_assert__cond___7
                                  (- |__VERIFIER_assert__cond___7':299:315:324:538:664|)) 0)
                          (= (+ (- |__VERIFIER_assert__cond___4':298:319:328:542:668|)
                                  __VERIFIER_assert__cond___4) 0)
                          (= (+ (- |__VERIFIER_assert__cond___3':297:320:329:543:669|)
                                  __VERIFIER_assert__cond___3) 0)
                          (= (+ (- |main____CPAchecker_TMP_4':296:321:330:544:670|)
                                  main____CPAchecker_TMP_4) 0)
                          (= (+ (- |main____CPAchecker_TMP_3':295:322:331:545:671|)
                                  main____CPAchecker_TMP_3) 0)
                          (= (+ (- |main__t':140:317:326:540:666|)
                                  |phi_main__t:349:452:648| 1) 0))
                     (and (<= (+ (- |K:313:314:323:537:663|) 1) 0)
                            (<= (+ |phi_main__t:349:452:648| (- havoc) 3) 0)
                            (<= (- |phi_main__t:349:452:648|) 0)
                            (= (+ |__VERIFIER_assert__cond___8':300:316:325:539:665|
                                    -1) 0)
                            (= (+ |__VERIFIER_assert__cond___7':299:315:324:538:664|
                                    -1) 0)
                            (<= (+ |main__t':140:317:326:540:666| (- havoc) 1) 0)
                            (<= (+ (- |main__t':140:317:326:540:666|) 2) 0)))
               (<= (- |K:313:314:323:537:663|) 0)
               (< (- |main__t':140:317:326:540:666|) 0) (< (+ (- havoc) 1) 0)
               (not (= (+ |main__t':140:317:326:540:666| (- havoc) 1) 0))
               (or (and (not (= |havoc:24:60:273:634:672| 0))
                          (or (and (= |havoc:31:62:285:635:673| 0)
                                     (= (+ (- |phi_main__t:276:277:286:636:674|)
                                             |main__t':140:317:326:540:666|) 0)
                                     (= (+ (- |phi___VERIFIER_assert__cond___3:275:278:287:637:675|)
                                             |__VERIFIER_assert__cond___3':297:320:329:543:669|) 0)
                                     (= (+ (- |phi___VERIFIER_assert__cond___4:274:279:288:638:676|)
                                             |__VERIFIER_assert__cond___4':298:319:328:542:668|) 0))
                                (and (not (= |havoc:31:62:285:635:673| 0))
                                       (not (= (ite (<= (- |main__t':140:317:326:540:666|) 0)
                                                    1 0) 0))
                                       (not (= (ite (<= (+ |main__t':140:317:326:540:666|
                                                             (- havoc) 1) 0)
                                                    1 0) 0))
                                       (not (= (+ |main__t':140:317:326:540:666|
                                                    (- havoc) 2) 0))
                                       (= (+ (- |phi_main__t:276:277:286:636:674|)
                                               |main__t':140:317:326:540:666|
                                               1) 0)
                                       (= (+ (ite (<= (- |main__t':140:317:326:540:666|) 0)
                                                  1 0)
                                               (- |phi___VERIFIER_assert__cond___3:275:278:287:637:675|)) 0)
                                       (= (+ (ite (<= (+ |main__t':140:317:326:540:666|
                                                           (- havoc) 1) 0)
                                                  1 0)
                                               (- |phi___VERIFIER_assert__cond___4:274:279:288:638:676|)) 0)))
                          (= (+ (- |phi_main__t:284:289:639:677|)
                                  |phi_main__t:276:277:286:636:674|) 0)
                          (= (+ (- |phi_main____CPAchecker_TMP_4:283:290:640:678|)
                                  |havoc:31:62:285:635:673|) 0)
                          (= (+ (- |phi___VERIFIER_assert__cond___3:282:291:641:679|)
                                  |phi___VERIFIER_assert__cond___3:275:278:287:637:675|) 0)
                          (= (+ (- |phi___VERIFIER_assert__cond___4:281:292:642:680|)
                                  |phi___VERIFIER_assert__cond___4:274:279:288:638:676|) 0)
                          (= (+ (- |phi_main____CPAchecker_TMP_6:280:293:643:681|)
                                  |main____CPAchecker_TMP_6':301:318:327:541:667|) 0))
                     (and (= |havoc:24:60:273:634:672| 0)
                            (= |havoc:25:61:294:644:682| 0)
                            (= (+ (- |phi_main__t:284:289:639:677|)
                                    |main__t':140:317:326:540:666|) 0)
                            (= (+ (- |phi_main____CPAchecker_TMP_4:283:290:640:678|)
                                    |main____CPAchecker_TMP_4':296:321:330:544:670|) 0)
                            (= (+ (- |phi___VERIFIER_assert__cond___3:282:291:641:679|)
                                    |__VERIFIER_assert__cond___3':297:320:329:543:669|) 0)
                            (= (+ (- |phi___VERIFIER_assert__cond___4:281:292:642:680|)
                                    |__VERIFIER_assert__cond___4':298:319:328:542:668|) 0)
                            (= (+ |havoc:25:61:294:644:682|
                                    (- |phi_main____CPAchecker_TMP_6:280:293:643:681|)) 0)))
               (= (ite (<= (- |phi_main__t:284:289:639:677|) 0) 1 0) 0)))
(check-sat)
